32      3       
13      19      18      
0       0       0       0       3       2       3       4       
10      0       4       0       3       5       6       8       
5       0       3       1       2       5       6       
4       0       0       1       2       5       8       
8       1       0       1       1       7       
7       6       0       0       1       7       
4       3       0       0       2       9       10      
5       0       4       0       2       9       10      
4       0       5       6       3       11      13      14      
5       1       1       0       3       11      12      14      
4       1       0       4       2       15      16      
10      8       0       0       2       15      16      
6       5       0       0       2       15      16      
3       1       0       9       1       15      
7       4       0       13      2       17      20      
2       0       7       0       2       18      20      
7       1       5       0       1       18      
3       0       0       6       1       19      
5       5       1       0       2       21      22      
6       0       8       3       1       21      
3       0       1       12      2       23      24      
1       0       1       0       1       23      
1       1       0       0       2       26      28      
1       0       13      0       1       25      
7       0       11      1       2       27      28      
6       5       0       1       1       27      
2       5       0       1       2       29      30      
5       0       0       1       2       29      30      
2       0       3       0       1       31      
8       2       0       8       1       31      
2       0       4       0       1       32      
0       0       0       0       0       
